<number of tasks>
50

<cycle time>
1000

<order strength>
0.197


<task times>
1 93
2 69
3 251
4 205
5 232
6 152
7 137
8 50
9 226
10 146
11 47
12 158
13 203
14 64
15 104
16 61
17 20
18 241
19 93
20 81
21 101
22 74
23 100
24 108
25 87
26 35
27 113
28 61
29 154
30 270
31 297
32 48
33 221
34 260
35 133
36 185
37 196
38 288
39 78
40 162
41 22
42 175
43 234
44 135
45 150
46 201
47 171
48 91
49 307
50 123

<precedence relations>
1,4
1,8
2,7
3,5
3,6
3,9
3,45
4,15
5,10
5,13
5,42
6,11
7,12
7,16
7,17
7,48
8,14
8,16
8,17
9,43
9,44
10,18
11,19
12,20
13,21
14,22
15,23
16,50
17,24
17,45
18,26
19,25
20,27
21,28
22,29
23,30
23,31
23,32
24,37
24,46
25,33
26,35
27,34
28,37
29,36
30,38
31,38
33,39
34,42
35,40
36,41
38,43
38,44
38,45
39,46
40,47
41,48
42,46
42,50
45,46
45,49

<end>
